123 5
10 10 10 10 10 

0 0 0 0 0 0 1 2 
0 0 0 0 0 0 6 3 4 6 10 11 12 
10 0 0 6 0 0 3 9 8 7 
3 0 0 8 0 0 1 5 
3 0 0 5 0 0 2 8 7 
5 0 0 10 0 0 1 7 
8 0 0 1 0 0 1 13 
2 0 0 8 0 0 1 13 
2 0 0 10 0 0 1 13 
2 0 0 7 0 0 1 13 
10 0 0 10 0 0 1 13 
6 0 0 10 0 0 1 13 
0 0 0 0 0 0 1 14 
0 0 0 0 0 0 2 15 16 
1 0 0 4 0 0 6 24 23 22 21 19 17 
10 0 0 6 0 0 3 22 18 17 
7 0 0 7 0 0 1 20 
8 0 0 10 0 0 1 21 
6 0 0 9 0 0 1 20 
4 0 0 5 0 0 1 25 
9 0 0 8 0 0 1 25 
2 0 0 8 0 0 1 25 
5 0 0 8 0 0 1 25 
8 0 0 10 0 0 1 25 
0 0 0 0 0 0 1 26 
0 0 0 0 0 0 5 27 28 30 31 32 
7 0 0 0 0 1 3 36 34 29 
4 0 0 0 0 7 3 35 34 33 
8 0 0 0 0 10 2 35 33 
4 0 0 0 0 10 2 34 33 
2 0 0 0 0 8 2 34 33 
3 0 0 0 0 5 1 33 
6 0 0 0 0 8 1 37 
6 0 0 0 0 6 1 37 
2 0 0 0 0 10 1 37 
8 0 0 0 0 10 1 37 
0 0 0 0 0 0 2 38 50 
0 0 0 0 0 0 4 39 40 41 43 
8 0 0 0 0 3 4 48 47 45 42 
7 0 0 0 0 8 4 47 46 44 120 
1 0 0 0 0 8 2 46 44 
7 0 0 0 0 3 1 44 
1 0 0 0 0 8 1 45 
10 0 0 0 0 10 1 49 
3 0 0 0 0 8 1 49 
10 0 0 0 0 10 1 49 
9 0 0 0 0 10 1 49 
9 0 0 0 0 7 1 49 
0 0 0 0 0 0 1 62 
0 0 0 0 0 0 5 51 52 54 55 56 
10 0 0 0 0 2 4 60 59 58 57 
2 0 0 0 0 5 2 59 53 
10 0 0 0 0 10 2 58 57 
10 0 0 0 0 7 3 59 58 70 
10 0 0 0 0 10 1 60 
3 0 0 0 0 5 1 57 
6 0 0 0 0 10 1 61 
5 0 0 0 0 10 1 61 
2 0 0 0 0 9 1 61 
5 0 0 0 0 7 1 61 
0 0 0 0 0 0 1 62 
0 0 0 0 0 0 5 63 75 87 99 111 
0 0 0 0 0 0 4 64 65 66 67 
10 0 2 0 0 0 2 69 68 
8 0 7 0 0 0 2 69 68 
2 0 5 0 0 0 2 69 68 
1 0 10 0 0 0 3 73 72 69 
6 0 5 0 0 0 4 73 72 71 70 
2 0 7 0 0 0 3 71 70 95 
1 0 9 0 0 0 1 74 
4 0 10 0 0 0 1 74 
9 0 10 0 0 0 1 74 
4 0 10 0 0 0 1 74 
0 0 0 0 0 0 1 123 
0 0 0 0 0 0 5 76 77 79 81 85 
2 0 0 0 3 0 2 84 78 
4 0 0 0 6 0 2 80 78 
8 0 0 0 10 0 2 83 82 
1 0 0 0 7 0 1 80 
4 0 0 0 8 0 1 82 
2 0 0 0 10 0 1 83 
9 0 0 0 9 0 1 86 
5 0 0 0 2 0 1 86 
10 0 0 0 10 0 2 86 97 
3 0 0 0 10 0 1 86 
0 0 0 0 0 0 1 123 
0 0 0 0 0 0 6 88 90 91 95 96 97 
9 0 0 0 0 7 2 94 89 
8 0 0 0 0 5 1 93 
5 0 0 0 0 6 1 92 
9 0 0 0 0 9 1 92 
3 0 0 0 0 10 1 98 
5 0 0 0 0 10 1 98 
6 0 0 0 0 6 1 98 
1 0 0 0 0 10 1 98 
8 0 0 0 0 5 1 98 
6 0 0 0 0 7 1 98 
0 0 0 0 0 0 1 123 
0 0 0 0 0 0 5 100 101 104 105 109 
9 0 0 0 0 4 2 108 102 
4 0 0 0 0 6 2 107 103 
4 0 0 0 0 10 1 107 
8 0 0 0 0 10 1 106 
7 0 0 0 0 10 1 106 
8 0 0 0 0 6 1 106 
3 0 0 0 0 6 1 110 
4 0 0 0 0 9 1 110 
3 0 0 0 0 5 1 110 
6 0 0 0 0 9 1 110 
0 0 0 0 0 0 1 123 
0 0 0 0 0 0 5 112 113 115 116 121 
3 0 0 0 0 3 4 120 119 117 114 
10 0 0 0 0 4 2 117 114 
9 0 0 0 0 8 1 118 
1 0 0 0 0 6 1 117 
8 0 0 0 0 8 1 117 
5 0 0 0 0 10 1 122 
6 0 0 0 0 6 1 122 
7 0 0 0 0 10 1 122 
1 0 0 0 0 10 1 122 
5 0 0 0 0 10 1 122 
0 0 0 0 0 0 1 123 
0 0 0 0 0 0 0 
